\ENCODING=ISO-8859-1
\Problem name: IloCplex

Minimize
 obj1: X_1 + X_2 + X_3 + X_4 + X_5 + X_6 + X_7 + X_8 + X_9 + X_10 + X_11 + X_12
       + X_13 + X_14 + X_15 + X_16 + X_17 + x18 + x19 + x20 + x21 + x22 + x23
       + x24 + x25 + x26 + x27 + x28 + x29 + x30 + x31 + x32 + x33 + x34 + x35
       + x36 + x37 + x38 + x39 + x40 + x41
Subject To
 c1:  3 X_1 + x24 + x26 + 2 x28 + x36 + x38 >= 2
 c2:  2 X_2 + x32 + x33 + x35 + x38 >= 1
 c3:  2 X_3 + x23 + x31 + x37 >= 1
 c4:  2 X_4 + x20 + x21 + x22 >= 2
 c5:  X_5 + x25 + x26 >= 1
 c6:  X_6 + x22 >= 1
 c7:  3 X_7 + x18 + x19 + 3 x27 + x31 + x37 + x38 >= 2
 c8:  4 X_8 + x32 + x33 + x34 + 3 x36 >= 1
 c9:  3 X_9 + x33 + x37 + x39 >= 1
 c10: 4 X_10 + x18 + x27 + 2 x28 + x29 + 2 x30 >= 1
 c11: X_11 + x18 + x23 + x35 + x40 >= 1
 c12: 5 X_12 + x19 + 2 x25 + x29 + x34 + x40 >= 1
 c13: 3 X_13 + x31 + x32 + x40 >= 1
 c14: X_14 + x19 + x30 >= 1
 c15: X_15 + x21 + x29 + x34 >= 1
 c16: X_16 + x20 + x24 + x39 + x41 >= 1
 c17: 3 X_17 + x41 >= 1
End
